NAME : kroB150
TYPE : OP
DIMENSION : 150
COST_LIMIT : 20904
ROUTE_NODES : 122
ROUTE_SCORE : 7020
ROUTE_COST : 20900
NODE_SEQUENCE_SECTION
1
40
116
4
60
140
115
77
80
147
65
130
13
79
110
20
64
42
55
67
47
104
149
6
54
138
62
83
72
126
108
113
22
112
8
106
17
25
90
34
145
109
98
148
88
28
39
71
38
101
56
119
5
43
86
133
50
95
94
123
91
76
121
111
70
102
23
35
68
30
21
122
89
59
118
73
3
69
74
57
100
33
45
81
97
144
96
87
150
52
11
84
128
103
66
105
19
92
10
141
99
143
93
49
18
29
37
120
16
51
127
135
146
82
78
26
61
132
142
46
125
53
-1
DEPOT_SECTION
1
-1
EOF
